53 40 54 53 56 46 42 51 43 37 47 47 50 54 48 52 54 50 53 47 50 52 43 42 49 56 51 49 48 39 51 53 51 49 56 53 53 53 48 47 51 50 40 54 56 52 54 55 48 47 49 57 51 47 48 44 54 49 50 45 51 41 39 53 56 53 47 51 56 43 43 58 46 50 49 43 54 45 55 42 48 58 50 47 55 52 52 48 45 55 53 52 55 59 42 49 43 41 50 52 